sn4 se4                                 
   1.00000000000000     
    11.7877216641611202    0.0000000000000000    0.0000000000000000
     0.0000000000000000    4.2074879523916584   -0.0000000000000001
     0.0000000000000000    0.0000000000000002    4.5650484865044643
   Sn   Se
     4     4
Direct
  0.1209276666456573  0.2500000000000000  0.1146186329768999
  0.8790723333543426  0.7500000000000000  0.8853813670231001
  0.3790723333543430  0.7500000000000000  0.6146186329768999
  0.6209277076456572  0.2500000000000000  0.3853813670231002
  0.1453374446320636  0.7500000000000000  0.5228430102296684
  0.8546624843679340  0.2500000000000000  0.4771569897703315
  0.3546625653679370  0.2500000000000000  0.0228430932296649
  0.6453374746320661  0.7500000000000000  0.9771569367703308
 
  0.00000000E+00  0.00000000E+00  0.00000000E+00
  0.00000000E+00  0.00000000E+00  0.00000000E+00
  0.00000000E+00  0.00000000E+00  0.00000000E+00
  0.00000000E+00  0.00000000E+00  0.00000000E+00
  0.00000000E+00  0.00000000E+00  0.00000000E+00
  0.00000000E+00  0.00000000E+00  0.00000000E+00
  0.00000000E+00  0.00000000E+00  0.00000000E+00
  0.00000000E+00  0.00000000E+00  0.00000000E+00
