c8                                      
   1.00000000000000     
     3.5715524629379813    0.0000000000000000    0.0000000000000000
    -0.0000000000000000    3.5715524629379813   -0.0000000000000000
    -0.0000000000000000    0.0000000000000000    3.5715524629379813
   C 
     8
Direct
  0.0000000000000000 -0.0000000000000000  0.5000000000000000
  0.0000000000000000  0.5000000000000000 -0.0000000000000000
  0.5000000000000000  0.5000000000000000  0.5000000000000000
  0.5000000000000000  0.0000000000000000 -0.0000000000000000
  0.7499999830000021  0.2500000000000000  0.2500000000000000
  0.2500000000000000  0.2500000000000000  0.7499999830000021
  0.2500000000000000  0.7499999830000021  0.2500000000000000
  0.7499999830000021  0.7499999830000021  0.7499999830000021
 
  0.00000000E+00  0.00000000E+00  0.00000000E+00
  0.00000000E+00  0.00000000E+00  0.00000000E+00
  0.00000000E+00  0.00000000E+00  0.00000000E+00
  0.00000000E+00  0.00000000E+00  0.00000000E+00
  0.00000000E+00  0.00000000E+00  0.00000000E+00
  0.00000000E+00  0.00000000E+00  0.00000000E+00
  0.00000000E+00  0.00000000E+00  0.00000000E+00
  0.00000000E+00  0.00000000E+00  0.00000000E+00
