si8
1.0
        5.4687280655         0.0000000000         0.0000000000
        0.0000000000         5.4687280655         0.0000000000
        0.0000000000         0.0000000000         5.4687280655
   Si
    8
Direct
     0.000000000         0.000000000         0.000000000
    -0.000000000         0.500000000         0.500000000
     0.500000000         0.500000000         0.000000000
     0.500000000        -0.000000000         0.500000000
     0.750000044         0.250000000         0.750000044
     0.250000000         0.250000000         0.250000000
     0.250000000         0.750000044         0.750000044
     0.750000044         0.750000044         0.250000000
